(set-info :smt-lib-version 2.6)
(set-logic QF_S)
(set-info :source |
Generated by: Murphy Berzish, Mitja Kulczynski, Federico Mora, Florin Manea, Joel Day, Dirk Nowotka, Vijay Ganesh, Zhengyang Lu
Generated on: 2020-10-01
Description: Translated from a collection of real-world regex queries, AutomataArk, collected by Loris D’Antoni and Fang Wang: https://github.com/lorisdanto/automatark
Application: Evaluate solvers on real-world regex queries
Target solver: Z3str3RE, CVC4, OSTRICH, Z3seq, Z3str3, Z3-Trau
Publications: Berzish, M., Kulczynski, M., Mora, F., Manea, F., Day, J. D., Nowotka, D., & Ganesh, V. (2021, July). An SMT solver for regular expressions and linear arithmetic over string length. In CAV 2021.
|)
(set-info :license "https://creativecommons.org/licenses/by/4.0/")
(set-info :category "industrial")
(set-info :status unsat)

(declare-const X String)
(assert (str.in_re X (re.++ (str.to_re "/cgi/logurl.cgi") (re.+ (re.union (str.to_re " ") (str.to_re "\u{9}") (str.to_re "\u{a}") (str.to_re "\u{c}") (str.to_re "\u{d}"))) (str.to_re "Host:User-Agent:Surveillance\u{13}com\u{a}"))))
(assert (not (str.in_re X (re.++ (str.to_re "X-Mailer:\u{13}") (re.+ (re.union (str.to_re " ") (str.to_re "\u{9}") (str.to_re "\u{a}") (str.to_re "\u{c}") (str.to_re "\u{d}"))) (str.to_re "cyber@yahoo.comcuAgent\u{a}")))))
(assert (str.in_re X (re.++ (str.to_re "\u{a}") ((_ re.loop 3 3) (re.union (re.range "a" "z") (re.range "A" "Z") (re.range "0" "9") (str.to_re ".") (str.to_re " ") (str.to_re "\u{9}") (str.to_re "\u{a}") (str.to_re "\u{c}") (str.to_re "\u{d}"))) (re.* (re.union (re.range "a" "z") (re.range "A" "Z") (re.range "0" "9") (str.to_re ".") (str.to_re " ") (str.to_re "\u{9}") (str.to_re "\u{a}") (str.to_re "\u{c}") (str.to_re "\u{d}"))))))
(assert (str.in_re X (re.++ (re.opt (re.union (str.to_re " ") (str.to_re "\u{9}") (str.to_re "\u{a}") (str.to_re "\u{c}") (str.to_re "\u{d}"))) (re.union (re.++ (str.to_re "0") (re.range "2" "9")) (re.++ (re.range "1" "9") (re.range "0" "9"))) (re.opt (re.union (str.to_re " ") (str.to_re "\u{9}") (str.to_re "\u{a}") (str.to_re "\u{c}") (str.to_re "\u{d}"))) ((_ re.loop 3 3) (re.union (re.range "A" "H") (re.range "J" "P") (re.range "R" "Z"))) (str.to_re "\u{a}") (re.union (re.range "A" "H") (re.range "K" "P") (str.to_re "R") (str.to_re "S") (str.to_re "V") (str.to_re "W") (str.to_re "Y")) (re.union (re.range "A" "H") (re.range "J" "P") (re.range "R" "Y")))))
(assert (not (str.in_re X (re.++ (re.opt (re.++ (str.to_re "CY") (re.opt (str.to_re "-")))) ((_ re.loop 8 8) (re.range "0" "9")) (re.range "A" "Z") (str.to_re "\u{a}")))))
(check-sat)

(exit)
